20
587 233 220
78 72 58
107 57 57
72 64 37
93 66 26
116 67 35
101 56 39
108 100 39
64 55 33
73 65 53
106 41 35
82 78 28
79 59 58
92 84 22
80 65 50
82 77 24
74 73 51
90 43 40
98 70 51
69 32 30
107 69 53
thpack7_60